# Objective value = 33
WA1n 0
WA1p 0
WA2n 0
WA2p 1
WB1n 0
WB1p 0
WB2n 0
WB2p 1
WC1n 0
WC1p 0
WC2n 0
WC2p 1
WD1n 1
WD1p 0
WD2n 1
WD2p 0
WE1n 2
WE1p 0
WF1n 3
WF1p 0
WF2n 1
WF2p 0
WG1n 3
WG1p 0
WG2n 1
WG2p 0
WH1n 0
WH1p 9
WT1n 1
WT1p 0
WT2n 1
WT2p 0
5 7
a 0
b 1
c 0
d 1
e 0
f 1
g 0
h 0
i 0
j 0
k 0
l 0
m 0
n 1
o 0
p 0
